NAME : hk48
TYPE : OP
DIMENSION : 48
COST_LIMIT : 5731
ROUTE_NODES : 30
ROUTE_SCORE : 30
ROUTE_COST : 5717
NODE_SEQUENCE_SECTION
1
2
48
26
29
32
5
3
25
10
40
36
34
6
8
47
7
38
14
18
12
22
13
28
41
24
17
35
11
16
-1
DEPOT_SECTION
1
-1
EOF
